p cnf 134 437
c t mc
-5 3 0
-5 -4 0
-3 4 5 0
7 -5 0
7 6 0
5 -6 -7 0
-5 -7 -8 0
5 7 -8 0
-5 7 8 0
5 -7 8 0
-9 -2 0
-9 8 0
2 -8 9 0
1 -9 -10 0
-1 9 -10 0
1 9 10 0
-1 -9 10 0
2 -11 -12 0
-2 11 -12 0
2 11 12 0
-2 -11 12 0
-14 -4 0
-14 13 0
4 -13 14 0
12 -14 -15 0
-12 14 -15 0
12 14 15 0
-12 -14 15 0
16 3 0
16 -13 0
-3 13 -16 0
-19 18 0
-19 5 0
-18 -5 19 0
20 -17 0
20 19 0
17 -19 -20 0
-22 -13 0
-22 21 0
13 -21 22 0
23 13 0
23 -22 0
-13 22 -23 0
24 20 0
24 -23 0
-20 23 -24 0
26 24 0
26 -25 0
-24 25 -26 0
-16 26 -27 0
16 -26 -27 0
-16 -26 27 0
16 26 27 0
-15 27 -28 0
15 -27 -28 0
-15 -27 28 0
15 27 28 0
31 29 0
31 30 0
-29 -30 -31 0
-33 32 0
-33 -17 0
-32 17 33 0
34 31 0
34 33 0
-31 -33 -34 0
-35 28 0
-35 34 0
-28 -34 35 0
-10 35 -36 0
10 -35 -36 0
-10 -35 36 0
10 35 36 0
-38 37 0
-38 4 0
-37 -4 38 0
39 38 0
39 12 0
-38 -12 -39 0
-40 -36 0
-40 -39 0
36 39 40 0
41 4 0
41 37 0
-4 -37 -41 0
-42 6 0
-42 -41 0
-6 41 42 0
3 -1 -43 0
-3 1 -43 0
3 1 43 0
-3 -1 43 0
-43 -6 -44 0
43 6 -44 0
-43 6 44 0
43 -6 44 0
-45 -42 0
-45 -44 0
42 44 45 0
46 -40 0
46 -45 0
40 45 -46 0
37 18 -47 0
-37 -18 -47 0
37 -18 47 0
-37 18 47 0
-48 21 0
-48 33 0
-21 -33 48 0
-49 37 0
-49 48 0
-37 -48 49 0
52 -50 0
52 -51 0
50 51 -52 0
-49 -52 -53 0
49 52 -53 0
-49 52 53 0
49 -52 53 0
54 -47 0
54 -53 0
47 53 -54 0
55 -9 0
55 -54 0
9 54 -55 0
57 -56 0
57 -13 0
56 13 -57 0
-57 -22 -58 0
57 22 -58 0
-57 22 58 0
57 -22 58 0
-59 -11 -60 0
59 11 -60 0
-59 11 60 0
59 -11 60 0
-61 60 0
-61 57 0
-60 -57 61 0
-62 -38 0
-62 -61 0
38 61 62 0
63 -49 0
63 -62 0
49 62 -63 0
64 58 0
64 -63 0
-58 63 -64 0
-65 3 0
-65 -33 0
-3 33 65 0
-66 -64 0
-66 -65 0
64 65 66 0
-55 66 -67 0
55 -66 -67 0
-55 -66 67 0
55 66 67 0
-68 -46 0
-68 -67 0
46 67 68 0
-69 -61 0
-69 -51 0
61 51 69 0
-70 -69 0
-70 -13 0
69 13 70 0
17 -52 -71 0
-17 52 -71 0
17 52 71 0
-17 -52 71 0
-70 -71 -72 0
70 71 -72 0
-70 71 72 0
70 -71 72 0
-73 25 0
-73 -25 0
74 -61 0
74 -73 0
61 73 -74 0
75 -33 0
75 33 0
76 74 0
76 75 0
-74 -75 -76 0
-72 -76 -77 0
72 76 -77 0
-72 76 77 0
72 -76 77 0
-79 -1 0
-79 78 0
1 -78 79 0
-80 -79 0
-80 78 0
79 -78 80 0
-81 -80 0
-81 2 0
80 -2 81 0
79 -57 -82 0
-79 57 -82 0
79 57 82 0
-79 -57 82 0
-83 1 0
-83 82 0
-1 -82 83 0
-84 -21 0
-84 -14 0
21 14 84 0
-85 -86 0
85 -86 0
-87 -11 0
-87 -86 0
11 86 87 0
-88 -4 0
-88 -11 0
4 11 88 0
89 -22 0
89 -88 0
22 88 -89 0
-87 89 -90 0
87 -89 -90 0
-87 -89 90 0
87 89 90 0
91 8 0
91 -11 0
-8 11 -91 0
-22 -5 -92 0
22 5 -92 0
-22 5 92 0
22 -5 92 0
-93 91 0
-93 92 0
-91 -92 93 0
-90 93 -94 0
90 -93 -94 0
-90 -93 94 0
90 93 94 0
-95 -84 0
-95 -94 0
84 94 95 0
83 95 -96 0
-83 -95 -96 0
83 -95 96 0
-83 95 96 0
-97 81 0
-97 96 0
-81 -96 97 0
98 -77 0
98 97 0
77 -97 -98 0
-99 82 0
-99 30 0
-82 -30 99 0
-100 -99 0
-100 22 0
99 -22 100 0
-101 -1 0
-101 -38 0
1 38 101 0
102 57 0
102 101 0
-57 -101 -102 0
103 -50 0
103 -102 0
50 102 -103 0
104 -101 0
104 102 0
101 -102 -104 0
103 104 -105 0
-103 -104 -105 0
103 -104 105 0
-103 104 105 0
-106 14 0
-106 -6 0
-14 6 106 0
-107 -30 0
-107 106 0
30 -106 107 0
2 32 -108 0
-2 -32 -108 0
2 -32 108 0
-2 32 108 0
108 -101 -109 0
-108 101 -109 0
108 101 109 0
-108 -101 109 0
-18 -109 -110 0
18 109 -110 0
-18 109 110 0
18 -109 110 0
111 -107 0
111 -110 0
107 110 -111 0
112 -105 0
112 -111 0
105 111 -112 0
-113 -100 0
-113 112 0
100 -112 113 0
-115 7 0
-115 114 0
-7 -114 115 0
116 115 0
116 -102 0
-115 102 -116 0
117 113 0
117 116 0
-113 -116 -117 0
-118 1 0
-118 -57 0
-1 57 118 0
120 25 0
120 107 0
-25 -107 -120 0
121 119 0
121 -120 0
-119 120 -121 0
-122 -118 0
-122 -121 0
118 121 122 0
-123 -13 0
-123 115 0
13 -115 123 0
-124 -122 0
-124 123 0
122 -123 124 0
-125 -4 0
-125 19 0
4 -19 125 0
126 102 0
126 -125 0
-102 125 -126 0
-127 18 0
-127 78 0
-18 -78 127 0
126 -127 -128 0
-126 127 -128 0
126 127 128 0
-126 -127 128 0
-38 -29 -129 0
38 29 -129 0
-38 29 129 0
38 -29 129 0
-128 129 -130 0
128 -129 -130 0
-128 -129 130 0
128 129 130 0
124 130 -131 0
-124 -130 -131 0
124 -130 131 0
-124 130 131 0
-117 131 -132 0
117 -131 -132 0
-117 -131 132 0
117 131 132 0
98 132 -133 0
-98 -132 -133 0
98 -132 133 0
-98 132 133 0
-68 133 -134 0
68 -133 -134 0
-68 -133 134 0
68 133 134 0
125 -52 -6 -127 -32 39 119 -50 -111 0
97 44 -103 37 29 -56 126 12 0
87 116 14 -79 -28 0
104 53 -126 -63 -109 16 -86 39 0
24 -10 -131 56 54 51 -30 -7 0
-61 -120 -105 93 -102 -8 41 0
-126 -61 20 -93 -117 -58 -81 0
39 -36 63 -26 0
96 36 -60 0
99 114 60 85 42 -19 96 -28 0
24 9 -63 74 -105 10 -48 68 0
85 15 110 -5 -10 8 -2 -102 0
-17 -6 -59 0
-64 16 -81 32 -92 0
-89 -108 -132 61 -59 -6 -71 -42 0
-56 81 -89 -11 0
28 40 112 -63 -42 81 86 0
-35 73 -31 17 16 0
-74 -80 -94 0
87 95 35 100 22 75 -73 -119 0
-72 122 69 106 -108 0
-96 74 40 -110 50 81 -41 89 0
63 127 101 -133 131 40 77 -12 0
123 -52 -44 -59 102 42 -41 83 0
41 -70 -92 49 60 0
40 -2 62 -98 108 80 70 103 0
-20 -107 -88 -46 93 -92 81 0
-26 -86 -121 0
71 -26 -70 88 -42 0
-118 -1 8 51 39 -6 44 -101 -61 0
-29 63 -34 -26 -81 48 -36 -106 0
-99 56 -88 6 80 -130 -91 -19 -5 0
133 -9 23 -92 -95 -58 53 -104 34 0
71 122 68 65 107 0
-37 124 -87 -58 68 -92 -89 -24 0
63 -91 -13 -109 -27 1 -11 54 113 0
62 49 75 76 -22 0
30 22 -130 72 -118 124 -46 73 -58 59 0
33 106 -27 103 36 17 73 -10 131 0
-98 -41 -88 -38 28 92 76 31 87 0
51 -6 59 -64 -72 -17 -82 -9 0
114 -54 -130 60 1 -84 -125 82 0
-65 23 7 -36 84 118 77 -9 -10 -100 0
39 44 -108 88 50 26 -129 -130 -28 0
16 57 -48 8 -33 91 2 12 0
-99 35 53 -66 -12 -16 81 -129 0
25 107 -93 0
-102 -65 80 -48 -95 -101 -12 81 0
-12 9 -125 0
131 -105 -70 0
6 81 74 13 -58 -43 30 -53 -29 27 0
-71 113 65 80 0
-40 -124 -116 -16 26 0
-77 -90 87 -131 0
-79 -82 132 -130 35 24 -39 -91 -120 0
129 81 -122 -74 -27 -3 52 -43 0
59 118 -77 119 -90 91 4 -14 60 0
19 104 -10 0
-67 34 128 -18 -100 0
100 129 24 0
-124 27 111 41 110 -85 -6 -134 117 61 0
-76 -108 -15 26 -25 -128 -17 44 110 0
-56 5 -21 -34 42 0
-104 -116 80 0
-97 -63 86 0
70 -122 15 -2 -90 -134 87 -98 -73 58 0
127 -19 -68 84 -40 0
-108 -128 -68 -112 -29 -8 81 -87 -83 0
-75 96 131 -2 0
-10 -123 -18 126 -91 -29 0
-89 105 64 48 0
72 78 -110 -19 0
39 87 68 -81 -117 -9 7 0
134 0
